--Link1--
%chk=molecule
#HF/6-31G* SCF=tight Test Pop=MK iop(6/33=2) iop(6/42=6) opt

remark line goes here

1   1
    C   15.6290000000        7.1580000000        8.8800000000     
    C   14.9110000000        6.2410000000        9.8810000000     
    C   13.9660000000        5.2120000000        9.2150000000     
    C   14.7340000000        4.2660000000        8.2500000000     
    C   14.0760000000        2.8870000000        8.1170000000     
    N   14.7660000000        2.0800000000        7.1130000000     
    C   14.1630000000        0.9900000000        6.4670000000     
    C   14.9040000000        0.3150000000        5.4740000000     
    C   14.3530000000       -0.7880000000        4.7930000000     
    C   13.0520000000       -1.2280000000        5.0990000000     
    C   12.3050000000       -0.5630000000        6.0880000000     
    C   12.8550000000        0.5410000000        6.7690000000     
    C   13.9990000000        2.2950000000        9.5210000000     
    C   14.3950000000        0.9700000000        9.8150000000     
    C   14.3710000000        0.4700000000       11.1360000000     
    C   13.9620000000        1.3390000000       12.1700000000     
    C   13.5710000000        2.6620000000       11.8930000000     
    C   13.5580000000        3.1420000000       10.5630000000     
    N   13.1710000000        4.4870000000       10.2430000000     
    C   12.0100000000        5.0520000000       10.6890000000     
    C   10.9760000000        4.2110000000       11.4430000000     
    O   11.7180000000        6.2340000000       10.4780000000     
    C   14.7790000000       -0.9200000000       11.4290000000     
    C   15.8600000000       -1.5210000000       10.7450000000     
    C   16.2490000000       -2.8460000000       11.0220000000     
    C   15.5580000000       -3.6020000000       11.9920000000     
    C   15.9720000000       -5.0360000000       12.2940000000     
    C   15.1590000000       -6.0280000000       10.1630000000     
    C   14.1550000000       -7.0150000000        9.5370000000     
    C   14.3470000000       -8.4320000000       10.0920000000     
    C   14.2740000000       -8.4070000000       11.6240000000     
    C   15.2780000000       -7.3970000000       12.2120000000     
    C   14.4810000000       -3.0110000000       12.6850000000     
    C   14.0980000000       -1.6860000000       12.4030000000     
    H   13.2650000000        5.7580000000        8.5790000000     
    H   13.0530000000        3.0520000000        7.7730000000     
    H   16.2420000000        7.8940000000        9.4010000000     
    H   16.2880000000        6.5970000000        8.2170000000     
    H   14.9150000000        7.7030000000        8.2610000000     
    H   14.3470000000        6.8700000000       10.5700000000     
    H   15.6500000000        5.7200000000       10.4920000000     
    H   14.8250000000        4.7430000000        7.2730000000     
    H   15.7530000000        4.1260000000        8.6150000000     
    H   15.7050000000        2.3580000000        6.8470000000     
    H   15.9060000000        0.6360000000        5.2240000000     
    H   14.9320000000       -1.2960000000        4.0340000000     
    H   12.6290000000       -2.0760000000        4.5770000000     
    H   11.3060000000       -0.9000000000        6.3290000000     
    H   12.2550000000        1.0200000000        7.5290000000     
    H   14.7260000000        0.3200000000        9.0190000000     
    H   13.9600000000        0.9980000000       13.1960000000     
    H   13.2940000000        3.3040000000       12.7170000000     
    H    9.9860000000        4.6570000000       11.3440000000     
    H   11.2110000000        4.1700000000       12.5060000000     
    H   10.9130000000        3.1970000000       11.0490000000     
    H   16.4090000000       -0.9600000000       10.0020000000     
    H   17.0820000000       -3.2770000000       10.4840000000     
    H   17.0060000000       -5.2040000000       11.9880000000     
    H   15.9530000000       -5.1670000000       13.3770000000     
    H   14.9520000000       -5.0300000000        9.7750000000     
    H   16.1730000000       -6.2790000000        9.8500000000     
    H   13.1360000000       -6.6770000000        9.7300000000     
    H   14.2720000000       -7.0210000000        8.4520000000     
    H   13.5880000000       -9.1030000000        9.6880000000     
    H   15.3120000000       -8.8280000000        9.7730000000     
    H   13.2620000000       -8.1510000000       11.9430000000     
    H   14.4750000000       -9.4020000000       12.0230000000     
    H   15.1650000000       -7.3710000000       13.2960000000     
    H   16.2990000000       -7.7290000000       12.0130000000     
    H   13.9410000000       -3.5700000000       13.4380000000     
    H   13.2630000000       -1.2580000000       12.9410000000     
    N   15.0810000000       -6.0340000000       11.6500000000     
    H   14.1440000000       -5.7550000000       11.8960000000     


