--Link1--
%chk=molecule
#HF/6-31G* SCF=tight Test Pop=MK iop(6/33=2) iop(6/42=6) opt

remark line goes here

-1   1
    C   14.7960000000        8.0980000000        8.0950000000     
    C   15.6880000000        7.1480000000        8.9060000000     
    C   14.9100000000        6.2440000000        9.8820000000     
    C   13.9670000000        5.2110000000        9.2140000000     
    C   14.7360000000        4.2640000000        8.2520000000     
    C   14.0750000000        2.8870000000        8.1180000000     
    N   14.7610000000        2.0790000000        7.1120000000     
    C   14.1530000000        0.9920000000        6.4640000000     
    C   14.8920000000        0.3150000000        5.4720000000     
    C   14.3360000000       -0.7840000000        4.7880000000     
    C   13.0320000000       -1.2170000000        5.0920000000     
    C   12.2870000000       -0.5490000000        6.0820000000     
    C   12.8430000000        0.5500000000        6.7650000000     
    C   13.9980000000        2.2940000000        9.5210000000     
    C   14.3940000000        0.9690000000        9.8150000000     
    C   14.3720000000        0.4690000000       11.1360000000     
    C   13.9620000000        1.3390000000       12.1700000000     
    C   13.5710000000        2.6620000000       11.8930000000     
    C   13.5580000000        3.1420000000       10.5630000000     
    N   13.1720000000        4.4870000000       10.2430000000     
    C   12.0120000000        5.0540000000       10.6910000000     
    C   10.9780000000        4.2150000000       11.4470000000     
    O   11.7210000000        6.2370000000       10.4800000000     
    C   14.7830000000       -0.9190000000       11.4300000000     
    C   15.8650000000       -1.5190000000       10.7470000000     
    C   16.2580000000       -2.8430000000       11.0280000000     
    C   15.5760000000       -3.6050000000       12.0020000000     
    C   14.4930000000       -3.0110000000       12.6870000000     
    C   14.1040000000       -1.6860000000       12.4030000000     
    C   15.9950000000       -5.0190000000       12.3040000000     
    O   15.3840000000       -5.6830000000       13.1670000000     
    H   13.2590000000        5.7470000000        8.5780000000     
    H   13.0530000000        3.0550000000        7.7740000000     
    H   15.4010000000        8.7730000000        7.4890000000     
    H   14.1390000000        7.5540000000        7.4160000000     
    H   14.1720000000        8.7100000000        8.7480000000     
    H   16.3940000000        7.7480000000        9.4820000000     
    H   16.2980000000        6.5480000000        8.2310000000     
    H   14.3440000000        6.8810000000       10.5630000000     
    H   15.6240000000        5.7110000000       10.5110000000     
    H   14.8300000000        4.7410000000        7.2750000000     
    H   15.7540000000        4.1220000000        8.6200000000     
    H   15.7040000000        2.3500000000        6.8510000000     
    H   15.8960000000        0.6300000000        5.2240000000     
    H   14.9120000000       -1.2950000000        4.0290000000     
    H   12.6040000000       -2.0620000000        4.5680000000     
    H   11.2860000000       -0.8810000000        6.3200000000     
    H   12.2450000000        1.0310000000        7.5250000000     
    H   14.7240000000        0.3200000000        9.0180000000     
    H   13.9610000000        0.9980000000       13.1950000000     
    H   13.2950000000        3.3040000000       12.7170000000     
    H    9.9880000000        4.6610000000       11.3480000000     
    H   10.9140000000        3.2010000000       11.0550000000     
    H   11.2140000000        4.1750000000       12.5090000000     
    H   16.4120000000       -0.9590000000       10.0020000000     
    H   17.0920000000       -3.2740000000       10.4910000000     
    H   13.9530000000       -3.5740000000       13.4360000000     
    H   13.2650000000       -1.2630000000       12.9390000000     
    O   16.9540000000       -5.5330000000       11.6940000000     


