--Link1--
%chk=molecule
#HF/6-31G* SCF=tight Test Pop=MK iop(6/33=2) iop(6/42=6) opt

remark line goes here

0   1
    C   14.9090000000        6.2390000000        9.8620000000     
    C   13.9630000000        5.2070000000        9.2180000000     
    C   14.7400000000        4.2690000000        8.2570000000     
    C   14.0810000000        2.8910000000        8.1180000000     
    N   14.7710000000        2.0840000000        7.1140000000     
    C   14.1520000000        1.0220000000        6.4380000000     
    C   12.8470000000        0.5680000000        6.7470000000     
    C   12.2770000000       -0.5050000000        6.0330000000     
    C   13.0020000000       -1.1340000000        5.0040000000     
    C   14.3000000000       -0.6890000000        4.6920000000     
    C   14.8710000000        0.3820000000        5.4070000000     
    C   14.0000000000        2.2940000000        9.5200000000     
    C   14.3960000000        0.9670000000        9.8080000000     
    C   14.3650000000        0.4860000000       11.1300000000     
    C   13.9600000000        1.3340000000       12.1760000000     
    C   13.5690000000        2.6570000000       11.8990000000     
    C   13.5580000000        3.1390000000       10.5670000000     
    N   13.1730000000        4.4860000000       10.2510000000     
    C   12.0170000000        5.0550000000       10.7030000000     
    C   10.9810000000        4.2190000000       11.4610000000     
    O   11.7290000000        6.2390000000       10.4950000000     
    H   13.2630000000        5.7490000000        8.5780000000     
    H   13.0590000000        3.0590000000        7.7710000000     
    H   15.4690000000        6.7860000000        9.1020000000     
    H   14.3620000000        6.9750000000       10.4520000000     
    H   15.6300000000        5.7570000000       10.5230000000     
    H   14.8380000000        4.7510000000        7.2830000000     
    H   15.7570000000        4.1300000000        8.6290000000     
    H   15.7020000000        2.3760000000        6.8320000000     
    H   12.2640000000        1.0190000000        7.5370000000     
    H   11.2810000000       -0.8460000000        6.2790000000     
    H   12.5640000000       -1.9570000000        4.4560000000     
    H   14.8620000000       -1.1700000000        3.9030000000     
    H   15.8690000000        0.7080000000        5.1510000000     
    H   14.7410000000        0.3100000000        9.0230000000     
    H   14.6710000000       -0.5290000000       11.3430000000     
    H   13.9570000000        0.9720000000       13.1950000000     
    H   13.2900000000        3.2990000000       12.7230000000     
    H   11.2160000000        4.1810000000       12.5230000000     
    H    9.9920000000        4.6660000000       11.3600000000     
    H   10.9160000000        3.2040000000       11.0700000000     


