--Link1--
%chk=molecule
#HF/6-31G* SCF=tight Test Pop=MK iop(6/33=2) iop(6/42=6) opt

remark line goes here

0   1
    C   17.5900000000       -0.3400000000       13.7530000000     
    O   16.5090000000       -0.1020000000       12.8610000000     
    C   15.8640000000       -1.1850000000       12.2950000000     
    C   16.2470000000       -2.5250000000       12.5490000000     
    C   15.5690000000       -3.5880000000       11.9330000000     
    C   14.5010000000       -3.3310000000       11.0590000000     
    C   14.0970000000       -2.0000000000       10.7910000000     
    O   13.0440000000       -1.6920000000        9.9510000000     
    C   12.4150000000       -2.7440000000        9.2310000000     
    C   14.7820000000       -0.9220000000       11.4130000000     
    C   14.3720000000        0.4710000000       11.1330000000     
    C   13.9520000000        1.3310000000       12.1690000000     
    C   13.5630000000        2.6560000000       11.8960000000     
    C   13.5560000000        3.1420000000       10.5680000000     
    N   13.1730000000        4.4900000000       10.2520000000     
    C   13.9640000000        5.2090000000        9.2160000000     
    C   14.9150000000        6.2370000000        9.8600000000     
    C   14.7350000000        4.2690000000        8.2520000000     
    C   14.0740000000        2.8910000000        8.1200000000     
    N   14.7520000000        2.0810000000        7.1090000000     
    C   14.1550000000        0.9650000000        6.5020000000     
    C   14.9150000000        0.2340000000        5.5660000000     
    C   14.3720000000       -0.8990000000        4.9270000000     
    C   13.0590000000       -1.3110000000        5.2180000000     
    C   12.2910000000       -0.5880000000        6.1500000000     
    C   12.8340000000        0.5440000000        6.7900000000     
    C   14.0020000000        2.2990000000        9.5240000000     
    C   14.4060000000        0.9760000000        9.8160000000     
    C   12.0190000000        5.0620000000       10.7050000000     
    C   10.9820000000        4.2290000000       11.4640000000     
    O   11.7350000000        6.2480000000       10.4980000000     
    H   13.2640000000        5.7540000000        8.5790000000     
    H   13.0500000000        3.0610000000        7.7810000000     
    H   17.2720000000       -0.9130000000       14.6250000000     
    H   18.4110000000       -0.8610000000       13.2580000000     
    H   17.9780000000        0.6130000000       14.1130000000     
    H   17.0640000000       -2.7690000000       13.2120000000     
    H   15.8690000000       -4.6070000000       12.1330000000     
    H   14.0060000000       -4.1790000000       10.6100000000     
    H   11.6410000000       -2.3260000000        8.5880000000     
    H   13.1240000000       -3.2720000000        8.5910000000     
    H   11.9320000000       -3.4560000000        9.9020000000     
    H   13.9380000000        0.9730000000       13.1900000000     
    H   13.2810000000        3.2920000000       12.7220000000     
    H   15.4760000000        6.7820000000        9.0990000000     
    H   14.3730000000        6.9740000000       10.4510000000     
    H   15.6360000000        5.7510000000       10.5180000000     
    H   14.8260000000        4.7480000000        7.2760000000     
    H   15.7550000000        4.1300000000        8.6170000000     
    H   15.7120000000        2.3170000000        6.8810000000     
    H   15.9270000000        0.5320000000        5.3270000000     
    H   14.9660000000       -1.4510000000        4.2130000000     
    H   12.6410000000       -2.1800000000        4.7290000000     
    H   11.2820000000       -0.9020000000        6.3790000000     
    H   12.2180000000        1.0650000000        7.5080000000     
    H   14.7540000000        0.3260000000        9.0270000000     
    H   11.2170000000        4.1920000000       12.5270000000     
    H    9.9940000000        4.6780000000       11.3630000000     
    H   10.9150000000        3.2140000000       11.0750000000     


