--Link1--
%chk=molecule
#HF/6-31G* SCF=tight Test Pop=MK iop(6/33=2) iop(6/42=6) opt

remark line goes here

0   1
    C   14.9170000000        6.2350000000        9.8600000000     
    C   13.9640000000        5.2090000000        9.2160000000     
    C   14.7340000000        4.2680000000        8.2510000000     
    C   14.0720000000        2.8920000000        8.1190000000     
    N   14.7430000000        2.0830000000        7.1030000000     
    C   14.1650000000        0.9290000000        6.5480000000     
    C   12.8290000000        0.5370000000        6.8010000000     
    C   12.3110000000       -0.6420000000        6.2310000000     
    C   13.1200000000       -1.4410000000        5.4010000000     
    C   14.4490000000       -1.0570000000        5.1430000000     
    C   14.9670000000        0.1220000000        5.7130000000     
    C   14.0020000000        2.2990000000        9.5240000000     
    C   14.4100000000        0.9780000000        9.8180000000     
    C   14.3710000000        0.4700000000       11.1330000000     
    C   13.9510000000        1.3310000000       12.1690000000     
    C   13.5630000000        2.6550000000       11.8960000000     
    C   13.5560000000        3.1420000000       10.5680000000     
    N   13.1730000000        4.4900000000       10.2510000000     
    C   12.0190000000        5.0620000000       10.7050000000     
    C   10.9800000000        4.2290000000       11.4620000000     
    O   11.7350000000        6.2480000000       10.4980000000     
    C   14.7760000000       -0.9210000000       11.4110000000     
    C   14.4820000000       -2.0760000000       10.6300000000     
    C   13.6910000000       -2.2060000000        9.3590000000     
    N   15.0110000000       -3.1590000000       11.1840000000     
    O   15.6650000000       -2.7280000000       12.3460000000     
    C   15.5140000000       -1.3810000000       12.4660000000     
    C   16.1600000000       -0.7370000000       13.6450000000     
    H   13.2650000000        5.7560000000        8.5790000000     
    H   13.0480000000        3.0650000000        7.7850000000     
    H   14.3750000000        6.9730000000       10.4530000000     
    H   15.6370000000        5.7480000000       10.5180000000     
    H   15.4770000000        6.7800000000        9.1000000000     
    H   14.8250000000        4.7480000000        7.2750000000     
    H   15.7540000000        4.1280000000        8.6140000000     
    H   15.7250000000        2.2720000000        6.9290000000     
    H   12.1800000000        1.1180000000        7.4400000000     
    H   11.2900000000       -0.9340000000        6.4330000000     
    H   12.7220000000       -2.3470000000        4.9650000000     
    H   15.0740000000       -1.6670000000        4.5060000000     
    H   15.9910000000        0.3970000000        5.5040000000     
    H   14.7750000000        0.3420000000        9.0280000000     
    H   13.9230000000        0.9800000000       13.1910000000     
    H   13.2780000000        3.2910000000       12.7210000000     
    H   10.9140000000        3.2130000000       11.0720000000     
    H    9.9920000000        4.6770000000       11.3590000000     
    H   11.2140000000        4.1910000000       12.5250000000     
    H   12.8620000000       -1.4990000000        9.3380000000     
    H   14.3160000000       -2.0110000000        8.4870000000     
    H   13.2700000000       -3.2050000000        9.2470000000     
    H   17.0070000000       -1.3260000000       13.9970000000     
    H   16.5270000000        0.2580000000       13.3920000000     
    H   15.4520000000       -0.6390000000       14.4680000000     


