--Link1--
%chk=molecule
#HF/6-31G* SCF=tight Test Pop=MK iop(6/33=2) iop(6/42=6) opt

remark line goes here

0   1
    C    3.1310000000       10.0150000000       -9.5140000000     
    C    3.3800000000        9.7790000000      -10.8510000000     
    C    2.3900000000        9.3750000000      -11.7290000000     
    C    1.0840000000        9.2190000000      -11.2460000000     
    C    0.8070000000        9.4580000000       -9.8810000000     
    C    1.8330000000        9.8430000000       -9.0190000000     
    C   -0.4950000000        9.1970000000       -9.4040000000     
    C   -0.8160000000        8.2990000000       -8.3670000000     
    C    0.0880000000        7.4850000000       -7.4570000000     
    N   -2.1340000000        8.1980000000       -8.1950000000     
    O   -2.7200000000        9.0240000000       -9.1590000000     
    C   -1.7320000000        9.6130000000       -9.9010000000     
    N   -2.0230000000       10.5990000000      -11.0420000000     
    C    2.7150000000        9.1050000000      -13.1950000000     
    F    1.5830000000        8.7240000000      -13.8470000000     
    F    3.6420000000        8.1130000000      -13.2790000000     
    F    3.2080000000       10.2360000000      -13.7660000000     
    H   -1.5750000000       10.2240000000      -11.9740000000     
    H   -3.1110000000       10.6990000000      -11.1710000000     
    H    0.7070000000        6.8090000000       -8.0650000000     
    H    0.7380000000        8.1630000000       -6.8840000000     
    H   -0.5270000000        6.8940000000       -6.7630000000     
    H    1.6270000000       10.0090000000       -7.9680000000     
    H    0.2890000000        8.9160000000      -11.9180000000     
    H    4.3880000000        9.9150000000      -11.2260000000     
    H    3.9310000000       10.3310000000       -8.8550000000     


