--Link1--
%chk=molecule
#HF/6-31G* SCF=tight Test Pop=MK iop(6/33=2) iop(6/42=6) opt

remark line goes here

0   1
    O    7.6720000000       11.1530000000       -6.6310000000     
    C    7.4830000000       10.4650000000       -5.4140000000     
    C    6.6650000000       11.2850000000       -7.5540000000     
    C    6.8660000000       12.0900000000       -8.6860000000     
    C    5.9050000000       12.2730000000       -9.6210000000     
    N    2.3400000000       11.2100000000      -10.1800000000     
    C    7.4190000000       13.6150000000      -10.9740000000     
    O    6.1120000000       13.0290000000      -10.7690000000     
    C    4.6380000000       11.6810000000       -9.4960000000     
    O   -2.8180000000        7.9580000000       -8.6480000000     
    N    3.1930000000       10.2890000000       -8.1420000000     
    C    3.5750000000       11.8500000000      -10.4440000000     
    C    2.2000000000       10.4690000000       -9.0470000000     
    O    3.6400000000       12.5490000000      -11.4760000000     
    C    0.9020000000        9.8180000000       -8.8050000000     
    C    0.7390000000        8.5990000000       -8.1140000000     
    C   -0.5070000000        7.9870000000       -8.0550000000     
    C   -0.5640000000        6.6590000000       -7.3700000000     
    C   -1.6420000000        8.6030000000       -8.6470000000     
    C   -1.5120000000        9.8320000000       -9.2800000000     
    C   -2.7250000000       10.4780000000       -9.8790000000     
    C   -0.2730000000       10.4280000000       -9.3660000000     
    C    4.4610000000       10.8740000000       -8.3330000000     
    C    5.4390000000       10.6630000000       -7.3760000000     
    H    5.2520000000       10.0320000000       -6.5150000000     
    H   -0.1820000000       11.3830000000       -9.8700000000     
    H   -3.1500000000        9.8170000000      -10.6490000000     
    H   -3.4740000000       10.6530000000       -9.0920000000     
    H   -2.4420000000       11.4380000000      -10.3360000000     
    H   -1.2690000000        6.7110000000       -6.5280000000     
    H   -0.9000000000        5.8930000000       -8.0840000000     
    H    0.4370000000        6.3970000000       -6.9960000000     
    H    1.5900000000        8.1370000000       -7.6270000000     
    H   -2.7300000000        7.1390000000       -8.1740000000     
    H    7.6510000000       14.2940000000      -10.1400000000     
    H    8.1750000000       12.8180000000      -11.0180000000     
    H    7.4240000000       14.1780000000      -11.9180000000     
    H    1.5770000000       11.3010000000      -10.8200000000     
    H    7.8240000000       12.5810000000       -8.8160000000     
    H    6.6830000000       10.9530000000       -4.8370000000     
    H    7.2010000000        9.4230000000       -5.6220000000     
    H    8.4170000000       10.4840000000       -4.8330000000     


