--Link1--
%chk=molecule
#HF/6-31G* SCF=tight Test Pop=MK iop(6/33=2) iop(6/42=6) opt

remark line goes here

0   1
    C   17.0560000000       -4.1720000000       13.4970000000     
    C   15.5550000000       -3.8790000000       13.3660000000     
    N   15.2920000000       -2.8270000000       12.4020000000     
    C   14.8870000000       -1.5290000000       12.6430000000     
    C   14.7720000000       -0.9270000000       11.4210000000     
    C   15.1250000000       -1.9350000000       10.4790000000     
    N   15.4360000000       -3.0780000000       11.0780000000     
    C   14.3680000000        0.4650000000       11.1330000000     
    C   13.9580000000        1.3330000000       12.1690000000     
    C   13.5700000000        2.6570000000       11.8950000000     
    C   13.5580000000        3.1420000000       10.5670000000     
    N   13.1740000000        4.4900000000       10.2520000000     
    C   13.9620000000        5.2100000000        9.2160000000     
    C   14.9080000000        6.2450000000        9.8570000000     
    C   14.7400000000        4.2700000000        8.2570000000     
    C   14.0820000000        2.8910000000        8.1200000000     
    N   14.7740000000        2.0850000000        7.1170000000     
    C   14.1700000000        0.9980000000        6.4660000000     
    C   14.9120000000        0.3250000000        5.4720000000     
    C   14.3610000000       -0.7760000000        4.7880000000     
    C   13.0590000000       -1.2170000000        5.0930000000     
    C   12.3120000000       -0.5540000000        6.0830000000     
    C   12.8620000000        0.5480000000        6.7670000000     
    C   14.0000000000        2.2970000000        9.5240000000     
    C   14.3950000000        0.9710000000        9.8150000000     
    C   12.0200000000        5.0610000000       10.7070000000     
    C   10.9860000000        4.2280000000       11.4700000000     
    O   11.7330000000        6.2450000000       10.4970000000     
    H   13.2610000000        5.7490000000        8.5750000000     
    H   13.0600000000        3.0580000000        7.7730000000     
    H   17.2360000000       -4.9530000000       14.2350000000     
    H   17.4770000000       -4.5070000000       12.5490000000     
    H   17.6040000000       -3.2830000000       13.8120000000     
    H   15.1460000000       -3.5800000000       14.3320000000     
    H   15.0160000000       -4.7770000000       13.0620000000     
    H   14.7230000000       -1.1590000000       13.6450000000     
    H   15.1630000000       -1.8790000000        9.4000000000     
    H   13.9410000000        0.9940000000       13.1950000000     
    H   13.2910000000        3.2960000000       12.7210000000     
    H   15.4660000000        6.7890000000        9.0950000000     
    H   14.3610000000        6.9820000000       10.4450000000     
    H   15.6300000000        5.7650000000       10.5180000000     
    H   14.8380000000        4.7500000000        7.2820000000     
    H   15.7570000000        4.1320000000        8.6290000000     
    H   15.7120000000        2.3660000000        6.8490000000     
    H   15.9140000000        0.6460000000        5.2230000000     
    H   14.9400000000       -1.2830000000        4.0280000000     
    H   12.6360000000       -2.0630000000        4.5680000000     
    H   11.3130000000       -0.8910000000        6.3230000000     
    H   12.2620000000        1.0250000000        7.5280000000     
    H   14.7380000000        0.3350000000        9.0140000000     
    H   10.9180000000        3.2120000000       11.0820000000     
    H   11.2240000000        4.1920000000       12.5320000000     
    H    9.9970000000        4.6750000000       11.3710000000     


