--Link1--
%chk=molecule
#HF/6-31G* SCF=tight Test Pop=MK iop(6/33=2) iop(6/42=6) opt

remark line goes here

0   1
    C    0.6690000000        9.7010000000      -10.0170000000     
    C    3.8320000000        7.5800000000      -13.1910000000     
    C    1.9440000000       10.2840000000      -10.2510000000     
    C    2.8810000000       10.3490000000       -9.2400000000     
    C    1.8820000000        9.4950000000      -13.8590000000     
    C    2.5250000000        9.8360000000       -7.9750000000     
    C    1.2600000000        9.2660000000       -7.7260000000     
    C    2.3080000000       10.7800000000      -11.6650000000     
    C    2.5520000000        9.5900000000      -12.6100000000     
    C    2.2230000000        8.4530000000      -14.7870000000     
    C    3.2220000000        7.5080000000      -14.4230000000     
    C    0.3640000000        9.1940000000       -8.7540000000     
    O    1.2340000000       11.6080000000      -12.1310000000     
    C    3.5300000000        8.6130000000      -12.2810000000     
    O    3.4160000000        9.8840000000       -7.0000000000     
    C   -0.9430000000        8.6020000000       -8.5060000000     
    C   -2.1180000000        9.1810000000       -8.8310000000     
    C   -2.3790000000       10.5720000000       -9.2900000000     
    O   -3.1950000000        8.3020000000       -8.5860000000     
    N   -2.5540000000        7.1010000000       -8.0230000000     
    C   -1.1910000000        7.3040000000       -7.9660000000     
    C   -0.1420000000        6.3740000000       -7.4100000000     
    H    0.5920000000        6.1380000000       -8.1940000000     
    H    0.3670000000        6.8590000000       -6.5640000000     
    H   -0.6210000000        5.4450000000       -7.0650000000     
    H   -2.0440000000       11.2820000000       -8.5190000000     
    H   -1.8300000000       10.7590000000      -10.2250000000     
    H   -3.4570000000       10.7040000000       -9.4660000000     
    H    3.0420000000        9.5070000000       -6.2120000000     
    H    4.0450000000        8.6630000000      -11.3280000000     
    H    1.1080000000       12.3320000000      -11.5290000000     
    H    3.5040000000        6.7270000000      -15.1200000000     
    H    1.7280000000        8.3870000000      -15.7490000000     
    H    3.2290000000       11.3800000000      -11.6120000000     
    H    1.0050000000        8.8940000000       -6.7400000000     
    H    1.1090000000       10.2120000000      -14.1130000000     
    H    3.8600000000       10.7810000000       -9.4130000000     
    H    4.5590000000        6.8250000000      -12.9150000000     
    H   -0.0620000000        9.6500000000      -10.8160000000     


