--Link1--
%chk=molecule
#HF/6-31G* SCF=tight Test Pop=MK iop(6/33=2) iop(6/42=6) opt

remark line goes here

1   1
    C   14.5160000000        6.6420000000        9.3310000000     
    C   14.4420000000        5.1060000000        9.4780000000     
    C   14.2360000000        4.4090000000        8.1230000000     
    C   14.4610000000        2.8810000000        8.2130000000     
    N   13.7720000000        2.1660000000        7.1430000000     
    C   14.1140000000        2.3150000000        5.7920000000     
    C   13.1830000000        1.8900000000        4.8210000000     
    C   13.4720000000        2.0120000000        3.4470000000     
    C   14.7000000000        2.5590000000        3.0310000000     
    C   15.6380000000        2.9800000000        3.9910000000     
    C   15.3500000000        2.8580000000        5.3640000000     
    C   14.1380000000        2.3030000000        9.5910000000     
    C   14.3540000000        0.9250000000        9.8150000000     
    C   14.1530000000        0.3380000000       11.0830000000     
    C   13.7430000000        1.1740000000       12.1440000000     
    C   13.5230000000        2.5480000000       11.9410000000     
    C   13.6820000000        3.1230000000       10.6570000000     
    N   13.4630000000        4.5220000000       10.4290000000     
    C   12.3180000000        5.1510000000       10.8400000000     
    C   11.1320000000        4.3270000000       11.3540000000     
    O   12.1480000000        6.3730000000       10.8070000000     
    C   14.3840000000       -1.1050000000       11.3000000000     
    C   13.5310000000       -1.8580000000       12.1380000000     
    C   13.7480000000       -3.2330000000       12.3500000000     
    C   14.8280000000       -3.8860000000       11.7220000000     
    C   15.0700000000       -5.3740000000       11.9480000000     
    C   15.1290000000       -7.5930000000       10.8830000000     
    C   14.7250000000       -8.4220000000        9.6490000000     
    C   13.2010000000       -8.4350000000        9.4660000000     
    C   12.6690000000       -6.9970000000        9.4130000000     
    C   13.1130000000       -6.1910000000       10.6490000000     
    C   15.6900000000       -3.1450000000       10.8870000000     
    C   15.4660000000       -1.7700000000       10.6790000000     
    H   15.4270000000        4.8150000000        9.8500000000     
    H   15.5320000000        2.7020000000        8.1050000000     
    H   14.6460000000        7.1310000000       10.2970000000     
    H   15.3680000000        6.9270000000        8.7130000000     
    H   13.6270000000        7.0520000000        8.8500000000     
    H   13.2160000000        4.6140000000        7.7950000000     
    H   14.8870000000        4.8410000000        7.3620000000     
    H   12.8640000000        1.7740000000        7.3740000000     
    H   12.2340000000        1.4670000000        5.1200000000     
    H   12.7480000000        1.6850000000        2.7140000000     
    H   14.9220000000        2.6520000000        1.9760000000     
    H   16.5840000000        3.3970000000        3.6750000000     
    H   16.0980000000        3.1850000000        6.0710000000     
    H   14.6900000000        0.3120000000        8.9900000000     
    H   13.6090000000        0.7640000000       13.1350000000     
    H   13.2380000000        3.1560000000       12.7870000000     
    H   11.0340000000        3.3800000000       10.8250000000     
    H   11.2250000000        4.1350000000       12.4220000000     
    H   10.2010000000        4.8750000000       11.2010000000     
    H   12.6900000000       -1.3800000000       12.6230000000     
    H   13.0770000000       -3.7820000000       12.9980000000     
    H   16.1420000000       -5.5180000000       12.0880000000     
    H   14.5970000000       -5.6970000000       12.8770000000     
    H   16.2170000000       -7.5660000000       10.9550000000     
    H   14.7700000000       -8.0790000000       11.7910000000     
    H   15.2020000000       -8.0140000000        8.7570000000     
    H   15.0960000000       -9.4420000000        9.7520000000     
    H   12.9350000000       -8.9710000000        8.5530000000     
    H   12.7330000000       -8.9750000000       10.2900000000     
    H   13.0230000000       -6.5050000000        8.5060000000     
    H   11.5810000000       -7.0050000000        9.3490000000     
    H   12.7530000000       -5.1670000000       10.5430000000     
    H   12.6400000000       -6.5950000000       11.5460000000     
    H   16.5310000000       -3.6230000000       10.4030000000     
    H   16.1440000000       -1.2210000000       10.0410000000     
    N   14.5920000000       -6.2070000000       10.8160000000     
    H   14.9850000000       -5.7870000000        9.9880000000     


