--Link1--
%chk=molecule
#HF/6-31G* SCF=tight Test Pop=MK iop(6/33=2) iop(6/42=6) opt

remark line goes here

0   1
   Cl    4.8730000000       11.0590000000       -7.9760000000     
    C    3.2830000000       10.3460000000       -8.1900000000     
    C    2.7390000000       10.2810000000       -9.4490000000     
    C    1.4760000000        9.6870000000       -9.6060000000     
    C    0.9040000000        9.6050000000      -10.9880000000     
    C    1.8050000000        9.1630000000      -12.1100000000     
    C    2.9800000000        8.4280000000      -11.8810000000     
    C    3.7510000000        7.9580000000      -12.9470000000     
    C    3.3460000000        8.2060000000      -14.2540000000     
    C    2.1520000000        8.9010000000      -14.4770000000     
    C    1.4010000000        9.3840000000      -13.4270000000     
    N   -0.3660000000        9.7460000000      -11.2020000000     
    N   -1.3670000000       10.0890000000      -10.1960000000     
    C   -2.5030000000       10.9020000000      -10.5610000000     
    C   -1.4820000000        9.1290000000       -9.2430000000     
    N   -0.4890000000        8.6020000000       -8.5630000000     
    C   -0.9590000000        7.5500000000       -7.8640000000     
    C   -0.2500000000        6.6600000000       -6.9050000000     
    N   -2.2380000000        7.3890000000       -8.1760000000     
    N   -2.6050000000        8.4110000000       -9.0690000000     
    C    0.7730000000        9.1740000000       -8.4960000000     
    C    1.3790000000        9.3340000000       -7.2350000000     
    C    2.6300000000        9.8830000000       -7.0690000000     
    H    3.0860000000        9.9500000000       -6.0880000000     
    H    0.8350000000        9.0100000000       -6.3540000000     
    H    0.5860000000        6.1600000000       -7.4180000000     
    H    0.1390000000        7.2580000000       -6.0670000000     
    H   -0.9490000000        5.9020000000       -6.5210000000     
    H   -2.1530000000       11.8770000000      -10.9320000000     
    H   -3.0800000000       10.3950000000      -11.3490000000     
    H   -3.1430000000       11.0540000000       -9.6790000000     
    H    0.4900000000        9.9370000000      -13.6250000000     
    H    1.8130000000        9.0640000000      -15.4940000000     
    H    3.9470000000        7.8640000000      -15.0890000000     
    H    4.6620000000        7.4030000000      -12.7560000000     
    H    3.2920000000        8.2230000000      -10.8630000000     
    H    3.2730000000       10.6800000000      -10.3040000000     


