--Link1--
%chk=molecule
#HF/6-31G* SCF=tight Test Pop=MK iop(6/33=2) iop(6/42=6) opt

remark line goes here

0   1
    C   14.9070000000        6.2460000000        9.8560000000     
    C   13.9610000000        5.2100000000        9.2160000000     
    C   14.7400000000        4.2700000000        8.2580000000     
    C   14.0830000000        2.8910000000        8.1200000000     
    N   14.7780000000        2.0870000000        7.1170000000     
    C   14.1820000000        0.9930000000        6.4700000000     
    C   12.8680000000        0.5500000000        6.7560000000     
    C   12.3260000000       -0.5580000000        6.0760000000     
    C   13.0870000000       -1.2340000000        5.1040000000     
    C   14.3940000000       -0.8000000000        4.8150000000     
    C   14.9370000000        0.3080000000        5.4950000000     
    C   14.0010000000        2.2970000000        9.5230000000     
    C   14.3930000000        0.9700000000        9.8140000000     
    C   14.3670000000        0.4650000000       11.1330000000     
    C   13.9580000000        1.3330000000       12.1690000000     
    C   13.5710000000        2.6570000000       11.8950000000     
    C   13.5590000000        3.1420000000       10.5670000000     
    N   13.1750000000        4.4890000000       10.2530000000     
    C   12.0210000000        5.0610000000       10.7080000000     
    C   10.9880000000        4.2280000000       11.4730000000     
    O   11.7330000000        6.2450000000       10.4980000000     
    C   14.7720000000       -0.9260000000       11.4210000000     
    C   15.8360000000       -1.5440000000       10.7280000000     
    C   16.1840000000       -2.8710000000       11.0330000000     
    C   15.4600000000       -3.5470000000       12.0250000000     
    N   14.4410000000       -2.9800000000       12.7010000000     
    C   14.1140000000       -1.7040000000       12.3990000000     
    H   13.2590000000        5.7480000000        8.5750000000     
    H   13.0620000000        3.0570000000        7.7710000000     
    H   14.3590000000        6.9830000000       10.4440000000     
    H   15.6290000000        5.7670000000       10.5180000000     
    H   15.4640000000        6.7910000000        9.0940000000     
    H   14.8390000000        4.7500000000        7.2830000000     
    H   15.7570000000        4.1330000000        8.6310000000     
    H   15.7250000000        2.3570000000        6.8680000000     
    H   12.2580000000        1.0370000000        7.5020000000     
    H   11.3220000000       -0.8900000000        6.3040000000     
    H   12.6700000000       -2.0850000000        4.5830000000     
    H   14.9830000000       -1.3160000000        4.0700000000     
    H   15.9440000000        0.6240000000        5.2580000000     
    H   14.7240000000        0.3260000000        9.0130000000     
    H   13.9530000000        0.9950000000       13.1970000000     
    H   13.2950000000        3.2970000000       12.7210000000     
    H    9.9990000000        4.6770000000       11.3770000000     
    H   11.2290000000        4.1920000000       12.5350000000     
    H   10.9190000000        3.2120000000       11.0850000000     
    H   16.3890000000       -1.0070000000        9.9710000000     
    H   16.9960000000       -3.3630000000       10.5160000000     
    H   15.7030000000       -4.5670000000       12.2840000000     
    H   13.2870000000       -1.2940000000       12.9590000000     


