--Link1--
%chk=molecule
#HF/6-31G* SCF=tight Test Pop=MK iop(6/33=2) iop(6/42=6) opt

remark line goes here

0   1
    O    3.0180000000        9.7450000000       -8.1410000000     
    C    3.7730000000       10.6740000000       -8.9470000000     
    C    1.6730000000        9.5830000000       -8.4950000000     
    C    0.9150000000        8.6540000000       -7.8130000000     
    C   -0.4070000000        8.4510000000       -8.1990000000     
    N   -2.8050000000        9.7630000000      -10.7420000000     
    C   -0.5480000000        6.5240000000       -6.6230000000     
    O   -1.1800000000        7.5160000000       -7.5410000000     
    C   -0.9840000000        9.1830000000       -9.2370000000     
    O   -4.4010000000       14.1730000000      -15.0980000000     
    N   -0.7020000000       10.9160000000      -11.0050000000     
    C   -2.3800000000        8.9460000000       -9.6320000000     
    C   -1.9670000000       10.6760000000      -11.3710000000     
    O   -5.9620000000       16.5420000000      -15.8200000000     
    O   -3.2030000000        8.1630000000       -9.1370000000     
    C   -2.5580000000       11.5140000000      -12.4920000000     
    C   -3.9410000000       11.5360000000      -12.6370000000     
    C   -4.5480000000       12.3960000000      -13.5600000000     
    C   -6.0560000000       12.3980000000      -13.6740000000     
    C   -3.7600000000       13.2350000000      -14.2970000000     
    C   -4.5130000000       15.4260000000      -14.3880000000     
    C   -5.9910000000       15.8540000000      -14.5910000000     
    C   -2.3500000000       13.2580000000      -14.1910000000     
    C   -1.5280000000       14.2530000000      -14.9780000000     
    C   -1.7320000000       12.3660000000      -13.2810000000     
    C   -0.2200000000       10.1490000000       -9.9170000000     
    C    1.1250000000       10.3760000000       -9.5470000000     
    H    1.7220000000       11.1290000000      -10.0480000000     
    H   -0.6520000000       12.3320000000      -13.1870000000     
    H   -1.7020000000       14.1030000000      -16.0540000000     
    H   -1.8230000000       15.2750000000      -14.6980000000     
    H   -0.4610000000       14.1050000000      -14.7550000000     
    H   -6.6520000000       14.9770000000      -14.6450000000     
    H   -6.3250000000       16.5150000000      -13.7770000000     
    H   -4.2900000000       15.2900000000      -13.3190000000     
    H   -3.8290000000       16.1760000000      -14.8110000000     
    H   -6.4430000000       13.3920000000      -13.4060000000     
    H   -6.3460000000       12.1570000000      -14.7070000000     
    H   -6.4760000000       11.6450000000      -12.9900000000     
    H   -4.5550000000       10.8800000000      -12.0310000000     
    H   -6.8360000000       16.8470000000      -16.0320000000     
    H    0.1780000000        5.9170000000       -7.1830000000     
    H   -0.0310000000        7.0550000000       -5.8090000000     
    H   -1.3240000000        5.8700000000       -6.1990000000     
    H   -3.7440000000        9.6680000000      -11.0740000000     
    H    1.3410000000        8.0920000000       -6.9900000000     
    H    3.7700000000       10.3370000000       -9.9950000000     
    H    3.3160000000       11.6720000000       -8.8820000000     
    H    4.8090000000       10.7200000000       -8.5800000000     


