--Link1--
%chk=molecule
#HF/6-31G* SCF=tight Test Pop=MK iop(6/33=2) iop(6/42=6) opt

remark line goes here

-1   1
    C   15.6320000000        7.1560000000        8.8820000000     
    C   14.9130000000        6.2390000000        9.8820000000     
    C   13.9660000000        5.2120000000        9.2150000000     
    C   14.7340000000        4.2650000000        8.2500000000     
    C   14.0740000000        2.8870000000        8.1170000000     
    N   14.7620000000        2.0800000000        7.1120000000     
    C   14.1570000000        0.9900000000        6.4670000000     
    C   12.8470000000        0.5460000000        6.7670000000     
    C   12.2940000000       -0.5570000000        6.0870000000     
    C   13.0410000000       -1.2270000000        5.1010000000     
    C   14.3450000000       -0.7920000000        4.7970000000     
    C   14.8980000000        0.3100000000        5.4770000000     
    C   13.9980000000        2.2950000000        9.5210000000     
    C   14.3960000000        0.9700000000        9.8150000000     
    C   14.3730000000        0.4700000000       11.1360000000     
    C   13.9620000000        1.3390000000       12.1700000000     
    C   13.5690000000        2.6620000000       11.8930000000     
    C   13.5570000000        3.1420000000       10.5630000000     
    N   13.1710000000        4.4870000000       10.2430000000     
    C   12.0100000000        5.0530000000       10.6880000000     
    C   10.9740000000        4.2130000000       11.4430000000     
    O   11.7190000000        6.2360000000       10.4770000000     
    C   14.7860000000       -0.9180000000       11.4310000000     
    C   15.8690000000       -1.5160000000       10.7490000000     
    C   16.2630000000       -2.8400000000       11.0300000000     
    C   15.5820000000       -3.6030000000       12.0040000000     
    C   14.4970000000       -3.0100000000       12.6880000000     
    C   14.1070000000       -1.6860000000       12.4040000000     
    C   16.0010000000       -5.0160000000       12.3060000000     
    O   16.9620000000       -5.5300000000       11.6960000000     
    H   13.2670000000        5.7590000000        8.5790000000     
    H   13.0520000000        3.0540000000        7.7740000000     
    H   16.2460000000        7.8910000000        9.4030000000     
    H   16.2910000000        6.5940000000        8.2190000000     
    H   14.9190000000        7.7020000000        8.2630000000     
    H   14.3490000000        6.8690000000       10.5710000000     
    H   15.6510000000        5.7170000000       10.4930000000     
    H   14.8250000000        4.7420000000        7.2730000000     
    H   15.7530000000        4.1250000000        8.6150000000     
    H   15.7050000000        2.3510000000        6.8520000000     
    H   12.2460000000        1.0290000000        7.5240000000     
    H   11.2930000000       -0.8900000000        6.3260000000     
    H   12.6160000000       -2.0740000000        4.5790000000     
    H   14.9240000000       -1.3040000000        4.0410000000     
    H   15.9020000000        0.6270000000        5.2290000000     
    H   14.7280000000        0.3210000000        9.0190000000     
    H   13.9600000000        0.9990000000       13.1960000000     
    H   13.2910000000        3.3040000000       12.7160000000     
    H   10.9120000000        3.1990000000       11.0490000000     
    H   11.2090000000        4.1730000000       12.5050000000     
    H    9.9850000000        4.6590000000       11.3410000000     
    H   16.4160000000       -0.9560000000       10.0040000000     
    H   17.0980000000       -3.2700000000       10.4930000000     
    H   13.9570000000       -3.5730000000       13.4360000000     
    H   13.2680000000       -1.2630000000       12.9390000000     
    O   15.3900000000       -5.6810000000       13.1680000000     


