--Link1--
%chk=molecule
#HF/6-31G* SCF=tight Test Pop=MK iop(6/33=2) iop(6/42=6) opt

remark line goes here

1   1
    C   14.9070000000        6.2450000000        9.8570000000     
    C   13.9620000000        5.2100000000        9.2160000000     
    C   14.7400000000        4.2700000000        8.2570000000     
    C   14.0820000000        2.8910000000        8.1200000000     
    N   14.7770000000        2.0860000000        7.1180000000     
    C   14.1760000000        0.9990000000        6.4640000000     
    C   14.9220000000        0.3260000000        5.4740000000     
    C   14.3730000000       -0.7730000000        4.7850000000     
    C   13.0690000000       -1.2120000000        5.0820000000     
    C   12.3170000000       -0.5490000000        6.0690000000     
    C   12.8660000000        0.5510000000        6.7580000000     
    C   14.0010000000        2.2970000000        9.5230000000     
    C   14.3930000000        0.9700000000        9.8140000000     
    C   14.3670000000        0.4660000000       11.1330000000     
    C   13.9580000000        1.3330000000       12.1690000000     
    C   13.5700000000        2.6580000000       11.8960000000     
    C   13.5590000000        3.1420000000       10.5670000000     
    N   13.1740000000        4.4890000000       10.2520000000     
    C   12.0200000000        5.0600000000       10.7070000000     
    C   10.9860000000        4.2270000000       11.4700000000     
    O   11.7320000000        6.2440000000       10.4970000000     
    C   14.7730000000       -0.9250000000       11.4240000000     
    C   14.0870000000       -1.6930000000       12.3920000000     
    C   14.4690000000       -3.0200000000       12.6720000000     
    C   15.5530000000       -3.6060000000       11.9870000000     
    C   15.9680000000       -5.0400000000       12.2910000000     
    C   16.8710000000       -6.5540000000       14.0100000000     
    C   17.6060000000       -6.6490000000       15.3610000000     
    C   18.9940000000       -6.0000000000       15.2830000000     
    C   18.8670000000       -4.5560000000       14.7780000000     
    C   18.1060000000       -4.4960000000       13.4390000000     
    C   16.2420000000       -2.8520000000       11.0150000000     
    C   15.8540000000       -1.5260000000       10.7400000000     
    H   13.2600000000        5.7480000000        8.5750000000     
    H   13.0620000000        3.0570000000        7.7720000000     
    H   15.4650000000        6.7900000000        9.0950000000     
    H   14.3600000000        6.9820000000       10.4460000000     
    H   15.6300000000        5.7650000000       10.5180000000     
    H   14.8380000000        4.7500000000        7.2820000000     
    H   15.7570000000        4.1330000000        8.6300000000     
    H   15.7190000000        2.3630000000        6.8580000000     
    H   15.9250000000        0.6460000000        5.2310000000     
    H   14.9550000000       -1.2800000000        4.0280000000     
    H   12.6470000000       -2.0570000000        4.5540000000     
    H   11.3160000000       -0.8850000000        6.3030000000     
    H   12.2620000000        1.0290000000        7.5150000000     
    H   14.7250000000        0.3220000000        9.0170000000     
    H   13.9550000000        0.9890000000       13.1940000000     
    H   13.2940000000        3.2970000000       12.7210000000     
    H   10.9180000000        3.2110000000       11.0820000000     
    H   11.2250000000        4.1900000000       12.5320000000     
    H    9.9970000000        4.6750000000       11.3720000000     
    H   13.2480000000       -1.2680000000       12.9240000000     
    H   13.9190000000       -3.5830000000       13.4140000000     
    H   15.0590000000       -5.6360000000       12.3840000000     
    H   16.5220000000       -5.4610000000       11.4500000000     
    H   17.3900000000       -7.1550000000       13.2620000000     
    H   15.8730000000       -6.9820000000       14.1160000000     
    H   17.0140000000       -6.1650000000       16.1390000000     
    H   17.7000000000       -7.6940000000       15.6570000000     
    H   19.4760000000       -6.0180000000       16.2610000000     
    H   19.6350000000       -6.5730000000       14.6110000000     
    H   18.3520000000       -3.9480000000       15.5230000000     
    H   19.8580000000       -4.1160000000       14.6590000000     
    H   18.6920000000       -4.9790000000       12.6560000000     
    H   17.9990000000       -3.4510000000       13.1470000000     
    H   17.0740000000       -3.2830000000       10.4750000000     
    H   16.4040000000       -0.9650000000        9.9970000000     
    N   16.7710000000       -5.1480000000       13.5360000000     
    H   16.2490000000       -4.6450000000       14.2370000000     


