--Link1--
%chk=molecule
#HF/6-31G* SCF=tight Test Pop=MK iop(6/33=2) iop(6/42=6) opt

remark line goes here

0   1
    C   14.9060000000        6.2460000000        9.8560000000     
    C   13.9620000000        5.2100000000        9.2160000000     
    C   14.7410000000        4.2700000000        8.2580000000     
    C   14.0830000000        2.8910000000        8.1200000000     
    N   14.7780000000        2.0860000000        7.1170000000     
    C   14.1810000000        0.9930000000        6.4700000000     
    C   12.8660000000        0.5530000000        6.7530000000     
    C   12.3230000000       -0.5540000000        6.0720000000     
    C   13.0850000000       -1.2320000000        5.1020000000     
    C   14.3930000000       -0.8000000000        4.8150000000     
    C   14.9370000000        0.3060000000        5.4970000000     
    C   14.0000000000        2.2960000000        9.5230000000     
    C   14.3930000000        0.9690000000        9.8140000000     
    C   14.3670000000        0.4660000000       11.1330000000     
    C   13.9580000000        1.3330000000       12.1690000000     
    C   13.5710000000        2.6570000000       11.8960000000     
    C   13.5590000000        3.1420000000       10.5670000000     
    N   13.1750000000        4.4890000000       10.2520000000     
    C   12.0200000000        5.0600000000       10.7070000000     
    C   10.9860000000        4.2270000000       11.4700000000     
    O   11.7320000000        6.2450000000       10.4980000000     
    C   14.7730000000       -0.9250000000       11.4230000000     
    C   14.0880000000       -1.6940000000       12.3930000000     
    C   14.4710000000       -3.0200000000       12.6710000000     
    C   15.5500000000       -3.6010000000       11.9810000000     
    C   16.2430000000       -2.8520000000       11.0130000000     
    C   15.8550000000       -1.5250000000       10.7380000000     
    H   13.2600000000        5.7470000000        8.5750000000     
    H   13.0620000000        3.0580000000        7.7710000000     
    H   15.6290000000        5.7670000000       10.5180000000     
    H   15.4650000000        6.7900000000        9.0940000000     
    H   14.3590000000        6.9830000000       10.4440000000     
    H   14.8400000000        4.7500000000        7.2830000000     
    H   15.7570000000        4.1320000000        8.6310000000     
    H   15.7270000000        2.3510000000        6.8740000000     
    H   12.2550000000        1.0410000000        7.4980000000     
    H   11.3190000000       -0.8850000000        6.2980000000     
    H   12.6670000000       -2.0820000000        4.5800000000     
    H   14.9830000000       -1.3180000000        4.0720000000     
    H   15.9440000000        0.6210000000        5.2620000000     
    H   14.7240000000        0.3220000000        9.0170000000     
    H   13.9550000000        0.9890000000       13.1940000000     
    H   13.2950000000        3.2970000000       12.7220000000     
    H   11.2250000000        4.1890000000       12.5320000000     
    H   10.9180000000        3.2110000000       11.0810000000     
    H    9.9970000000        4.6750000000       11.3720000000     
    H   13.2510000000       -1.2680000000       12.9280000000     
    H   13.9340000000       -3.5930000000       13.4150000000     
    H   15.8460000000       -4.6200000000       12.1930000000     
    H   17.0740000000       -3.2920000000       10.4800000000     
    H   16.4060000000       -0.9630000000        9.9970000000     


