--Link1--
%chk=molecule
#HF/6-31G* SCF=tight Test Pop=MK iop(6/33=2) iop(6/42=6) opt

remark line goes here

1   1
    C    2.0230000000       14.5820000000      -14.5300000000     
    C    3.4970000000       14.9460000000      -14.3080000000     
    C    3.4320000000       16.3710000000      -14.9220000000     
    C    2.0990000000       16.9870000000      -14.5520000000     
    N    1.2580000000       15.8210000000      -14.2170000000     
    C   -0.0000000000       15.8770000000      -14.9600000000     
    C   -0.9240000000       14.6930000000      -14.6560000000     
    O   -0.8370000000       14.4650000000      -13.2550000000     
    C   -1.2640000000       13.2250000000      -12.7450000000     
    C   -2.0100000000       12.2880000000      -13.4140000000     
    C   -2.3740000000       11.0940000000      -12.8070000000     
    C   -0.8350000000       12.9480000000      -11.4540000000     
    C   -1.2580000000       11.7580000000      -10.8460000000     
    C   -1.9650000000       10.7830000000      -11.5070000000     
    N   -2.4470000000        9.6030000000      -11.0030000000     
    C   -1.9540000000        8.9570000000       -9.9400000000     
    N   -0.7430000000        9.2030000000       -9.4040000000     
    N   -2.7450000000        7.9500000000       -9.5020000000     
    C   -2.2740000000        7.2090000000       -8.4050000000     
    C   -1.0160000000        7.4400000000       -7.8110000000     
    C   -0.6130000000        6.5890000000       -6.6690000000     
    C   -0.2480000000        8.4860000000       -8.3760000000     
    N    0.9290000000        8.7140000000       -7.7900000000     
    C    1.8940000000        9.6140000000       -8.2710000000     
    C    1.9200000000       10.3230000000       -9.5010000000     
    C    2.9910000000        9.7550000000       -7.4100000000     
    C    4.0690000000       10.5850000000       -7.7100000000     
    C    4.0900000000       11.2370000000       -8.9220000000     
    C    3.0440000000       11.0970000000       -9.8100000000     
    S    3.0450000000       12.0500000000      -11.3150000000     
    O    4.4400000000       11.9830000000      -11.8870000000     
    O    2.3710000000       13.3520000000      -10.9490000000     
    N    1.9800000000       11.3680000000      -12.2760000000     
    C    2.3340000000       10.2510000000      -13.1530000000     
    C    3.0800000000        9.0990000000      -12.4060000000     
    C    3.1380000000       10.6790000000      -14.3870000000     
    C    0.9750000000        9.7640000000      -13.6520000000     
    H    1.1190000000        8.9210000000      -14.3440000000     
    H    0.3660000000        9.4370000000      -12.7970000000     
    H    0.4620000000       10.5840000000      -14.1760000000     
    H    4.1300000000       11.0340000000      -14.0720000000     
    H    3.2530000000        9.8210000000      -15.0650000000     
    H    2.6070000000       11.4890000000      -14.9070000000     
    H    4.0120000000        9.4890000000      -11.9690000000     
    H    2.4370000000        8.7040000000      -11.6050000000     
    H    3.3170000000        8.2940000000      -13.1170000000     
    H    1.0130000000       11.7220000000      -12.2820000000     
    H    4.9340000000       11.8660000000       -9.1810000000     
    H    4.8790000000       10.7140000000       -7.0020000000     
    H    3.0010000000        9.2000000000       -6.4780000000     
    H    1.0840000000       10.2660000000      -10.1880000000     
    H    1.1440000000        8.1950000000       -6.9270000000     
    H   -1.3390000000        6.7050000000       -5.8500000000     
    H   -0.5860000000        5.5360000000       -6.9880000000     
    H    0.3850000000        6.8920000000       -6.3200000000     
    H   -2.9050000000        6.4260000000       -7.9990000000     
    H   -3.2540000000        9.1790000000      -11.4820000000     
    H   -1.0160000000       11.5990000000       -9.8010000000     
    H   -0.1850000000       13.6380000000      -10.9270000000     
    H   -2.9890000000       10.3870000000      -13.3530000000     
    H   -2.3210000000       12.4840000000      -14.4340000000     
    H   -0.5940000000       13.8010000000      -15.2080000000     
    H   -1.9600000000       14.9370000000      -14.9370000000     
    H    0.2270000000       15.8780000000      -16.0360000000     
    H   -0.5230000000       16.8080000000      -14.6950000000     
    H    1.0490000000       15.8360000000      -13.2310000000     
    H    1.6750000000       17.5460000000      -15.4000000000     
    H    2.2030000000       17.6580000000      -13.6870000000     
    H    4.2500000000       16.9870000000      -14.5220000000     
    H    3.5210000000       16.3080000000      -16.0170000000     
    H    3.7720000000       14.9600000000      -13.2430000000     
    H    4.1830000000       14.2830000000      -14.8550000000     
    H    1.7230000000       13.7640000000      -13.8580000000     
    H    1.8550000000       14.2790000000      -15.5740000000     


