--Link1--
%chk=molecule
#HF/6-31G* SCF=tight Test Pop=MK iop(6/33=2) iop(6/42=6) opt

remark line goes here

0   1
    C   15.3290000000       -5.6910000000       13.1630000000     
    O   16.0040000000       -4.9010000000       12.1910000000     
    C   15.5610000000       -3.6130000000       11.9830000000     
    C   14.4760000000       -3.0200000000       12.6720000000     
    C   14.0930000000       -1.6930000000       12.3920000000     
    C   14.7750000000       -0.9230000000       11.4240000000     
    C   15.8570000000       -1.5240000000       10.7410000000     
    C   16.2430000000       -2.8490000000       11.0170000000     
    C   14.3690000000        0.4670000000       11.1340000000     
    C   13.9580000000        1.3340000000       12.1690000000     
    C   13.5690000000        2.6580000000       11.8950000000     
    C   13.5580000000        3.1420000000       10.5670000000     
    N   13.1740000000        4.4890000000       10.2520000000     
    C   13.9620000000        5.2100000000        9.2160000000     
    C   14.9090000000        6.2430000000        9.8580000000     
    C   14.7390000000        4.2700000000        8.2570000000     
    C   14.0810000000        2.8910000000        8.1200000000     
    N   14.7750000000        2.0860000000        7.1160000000     
    C   14.1770000000        0.9920000000        6.4710000000     
    C   12.8630000000        0.5500000000        6.7600000000     
    C   12.3180000000       -0.5580000000        6.0820000000     
    C   13.0770000000       -1.2350000000        5.1090000000     
    C   14.3840000000       -0.8010000000        4.8160000000     
    C   14.9290000000        0.3060000000        5.4950000000     
    C   14.0010000000        2.2970000000        9.5230000000     
    C   14.3950000000        0.9700000000        9.8140000000     
    C   12.0180000000        5.0590000000       10.7050000000     
    C   10.9830000000        4.2240000000       11.4640000000     
    O   11.7310000000        6.2440000000       10.4960000000     
    H   13.2610000000        5.7500000000        8.5760000000     
    H   13.0600000000        3.0570000000        7.7720000000     
    H   15.3960000000       -5.2460000000       14.1570000000     
    H   14.2790000000       -5.8340000000       12.9040000000     
    H   15.7910000000       -6.6760000000       13.2130000000     
    H   13.9150000000       -3.5600000000       13.4210000000     
    H   13.2560000000       -1.2690000000       12.9270000000     
    H   16.4080000000       -0.9640000000        9.9990000000     
    H   17.0760000000       -3.2820000000       10.4800000000     
    H   13.9550000000        0.9900000000       13.1940000000     
    H   13.2930000000        3.2970000000       12.7210000000     
    H   15.4680000000        6.7880000000        9.0970000000     
    H   14.3620000000        6.9800000000       10.4480000000     
    H   15.6300000000        5.7620000000       10.5200000000     
    H   14.8360000000        4.7500000000        7.2820000000     
    H   15.7570000000        4.1320000000        8.6280000000     
    H   15.7220000000        2.3530000000        6.8670000000     
    H   12.2550000000        1.0380000000        7.5070000000     
    H   11.3160000000       -0.8900000000        6.3120000000     
    H   12.6580000000       -2.0860000000        4.5890000000     
    H   14.9710000000       -1.3190000000        4.0700000000     
    H   15.9350000000        0.6220000000        5.2560000000     
    H   14.7260000000        0.3230000000        9.0170000000     
    H   10.9160000000        3.2090000000       11.0730000000     
    H   11.2210000000        4.1850000000       12.5260000000     
    H    9.9940000000        4.6720000000       11.3660000000     


