--Link1--
%chk=molecule
#HF/6-31G* SCF=tight Test Pop=MK iop(6/33=2) iop(6/42=6) opt

remark line goes here

0   1
    C   -0.3060000000        6.8890000000       -6.8810000000     
    C    4.2750000000       10.8550000000       -7.3610000000     
    C    3.7180000000       10.9990000000      -10.4370000000     
    C    0.0290000000       12.6800000000      -14.1360000000     
    C   -1.4200000000       14.6430000000      -13.3420000000     
    C    0.7290000000       14.0920000000      -12.2110000000     
    O   -2.8070000000       11.8650000000      -13.3090000000     
   Cl    4.5480000000        7.4280000000      -15.5010000000     
    C    3.8880000000        7.9460000000      -12.9380000000     
    C    2.3260000000        8.7440000000      -14.5570000000     
    C    3.0800000000        8.4510000000      -11.9140000000     
    C    1.5120000000        9.2320000000      -13.5410000000     
    C   -2.5150000000       10.7910000000      -11.1670000000     
    N   -0.2570000000        9.7710000000      -11.4640000000     
    N   -2.2800000000        7.6580000000       -8.2830000000     
    N   -2.5520000000        8.5210000000       -9.1930000000     
    O   -1.0830000000       12.5400000000      -12.0260000000     
    S    1.7050000000        9.5720000000       -7.2240000000     
    C   -2.1450000000       11.7840000000      -12.2740000000     
    C    1.0420000000        9.6300000000      -11.1550000000     
    C    3.5040000000        8.0660000000      -14.2530000000     
    C   -0.9910000000        7.7740000000       -7.9270000000     
    C    1.8840000000        9.0980000000      -12.1930000000     
    C    3.0150000000       10.3060000000       -8.0730000000     
    C    2.7450000000       10.3540000000       -9.4350000000     
    C   -1.4260000000        9.2180000000       -9.4340000000     
    C    1.5160000000        9.7500000000       -9.8150000000     
    C    0.8270000000        9.2640000000       -8.6860000000     
    C   -1.2330000000       10.3330000000      -10.4830000000     
    N   -0.4320000000        8.7440000000       -8.6820000000     
    C   -0.4620000000       13.4930000000      -12.9660000000     
    H   -0.7900000000       11.2100000000       -9.9890000000     
    H   -3.1720000000       11.2820000000      -10.4330000000     
    H   -3.0340000000        9.9250000000      -11.6030000000     
    H    0.5790000000        9.7230000000      -13.7920000000     
    H    3.3930000000        8.3340000000      -10.8830000000     
    H    2.0420000000        8.8920000000      -15.5930000000     
    H    4.8240000000        7.4560000000      -12.6930000000     
    H    0.3710000000       14.5980000000      -11.3020000000     
    H    1.4280000000       13.2900000000      -11.9320000000     
    H    1.2450000000       14.8190000000      -12.8560000000     
    H   -2.3210000000       14.2290000000      -13.8190000000     
    H   -1.7070000000       15.1930000000      -12.4330000000     
    H   -0.9160000000       15.3260000000      -14.0410000000     
    H    0.7630000000       11.9380000000      -13.7860000000     
    H   -0.8200000000       12.1620000000      -14.6050000000     
    H    0.5040000000       13.3460000000      -14.8720000000     
    H    3.8630000000       12.0580000000      -10.1780000000     
    H    4.6840000000       10.4760000000      -10.3980000000     
    H    3.3010000000       10.9240000000      -11.4520000000     
    H    5.1690000000       10.3520000000       -7.7580000000     
    H    4.3540000000       11.9380000000       -7.5390000000     
    H    4.1970000000       10.6660000000       -6.2800000000     
    H    0.4990000000        6.3120000000       -7.3600000000     
    H    0.1180000000        7.5210000000       -6.0870000000     
    H   -1.0440000000        6.1990000000       -6.4460000000     


