--Link1--
%chk=molecule
#HF/6-31G* SCF=tight Test Pop=MK iop(6/33=2) iop(6/42=6) opt

remark line goes here

0   1
    C    1.3490000000        9.7270000000       -9.6530000000     
    C    2.6170000000       10.3180000000       -9.5210000000     
    C    3.1710000000       10.4010000000       -8.2500000000     
   Cl    4.7430000000       11.1220000000       -8.0320000000     
    C    2.5490000000        9.8920000000       -7.1030000000     
    C    1.2830000000        9.2980000000       -7.2480000000     
    C    0.7150000000        9.2110000000       -8.5130000000     
    N   -0.5350000000        8.6080000000       -8.5210000000     
    C   -1.0270000000        7.5360000000       -7.8450000000     
    C   -0.2840000000        6.5970000000       -6.8760000000     
    N   -2.3050000000        7.3490000000       -8.1810000000     
    N   -2.6570000000        8.2700000000       -9.0050000000     
    C   -1.5770000000        9.0530000000       -9.2340000000     
    C   -1.4940000000       10.1900000000      -10.2030000000     
    N   -0.5080000000        9.7340000000      -11.2190000000     
    C    0.8220000000        9.6710000000      -10.9800000000     
    C    1.6230000000        9.2000000000      -12.0860000000     
    C    2.8030000000        8.4940000000      -11.8700000000     
    C    3.5470000000        7.9670000000      -12.9270000000     
    C    3.1600000000        8.1680000000      -14.2490000000     
    C    2.0000000000        8.8830000000      -14.4680000000     
    C    1.2530000000        9.3950000000      -13.4110000000     
    H    0.3560000000        9.9620000000      -13.6280000000     
    H    1.6630000000        9.0490000000      -15.4850000000     
    H    3.7470000000        7.7790000000      -15.0740000000     
    H    4.4420000000        7.3920000000      -12.7150000000     
    H    3.1520000000        8.3480000000      -10.8540000000     
    H   -2.4730000000       10.3790000000      -10.6680000000     
    H   -1.1430000000       11.1050000000       -9.7020000000     
    H    0.5490000000        6.1100000000       -7.4040000000     
    H    0.1080000000        7.1790000000       -6.0300000000     
    H   -0.9790000000        5.8310000000       -6.5030000000     
    H    0.7560000000        8.9130000000       -6.3820000000     
    H    3.0300000000        9.9550000000       -6.1330000000     
    H    3.1470000000       10.6970000000      -10.3870000000     


