--Link1--
%chk=molecule
#HF/6-31G* SCF=tight Test Pop=MK iop(6/33=2) iop(6/42=6) opt

remark line goes here

1   1
    N   18.1120000000        5.5120000000       37.1490000000     
    N   18.1170000000        9.6410000000       36.9000000000     
    C   17.4440000000        6.2410000000       38.0620000000     
    C   17.6820000000       10.4170000000       38.0450000000     
    C   16.6580000000        9.7310000000       38.9550000000     
    C   19.9600000000        5.8760000000       34.0620000000     
    C   18.6510000000       10.3010000000       35.7290000000     
    C   19.7010000000        9.6540000000       39.5250000000     
    C   20.4680000000       11.2620000000       34.5390000000     
    C   18.3030000000       11.8110000000       35.5280000000     
    C   21.3680000000        5.0480000000       32.2900000000     
    C   19.9290000000        7.0960000000       33.4720000000     
    C   22.0590000000        6.4620000000       30.4220000000     
    C   22.7260000000        7.8070000000       28.4920000000     
    C   22.5290000000        8.9290000000       26.2790000000     
    C   24.6690000000        8.6590000000       27.2960000000     
    O   22.6820000000        5.5020000000       29.9600000000     
    N   22.0350000000        7.6610000000       29.8460000000     
    C   24.1110000000        8.3280000000       28.6950000000     
    N   23.8260000000        9.5590000000       26.4960000000     
    C   24.4300000000        9.8110000000       25.1100000000     
    C   21.8470000000        8.6550000000       27.6110000000     
    C   21.3440000000        6.2980000000       31.7030000000     
    C   20.6810000000        4.8340000000       33.4340000000     
    O   20.6310000000        3.5680000000       34.0860000000     
    C   21.1530000000        2.3680000000       33.3800000000     
    C   20.6180000000        7.3290000000       32.2710000000     
    N   19.3430000000        5.4970000000       35.2330000000     
    C   18.7060000000        6.2640000000       36.1250000000     
    N   18.7130000000        7.6070000000       35.9840000000     
    C   18.0540000000        8.2740000000       36.9630000000     
    C   19.2290000000       12.1210000000       34.3280000000     
    C   20.1530000000       10.3080000000       35.6930000000     
    C   18.8670000000       10.8020000000       38.9780000000     
    O   16.0160000000       10.4240000000       39.7750000000     
    N   16.5110000000        8.3820000000       38.8700000000     
    C   15.4930000000        7.7090000000       39.7420000000     
    C   17.3570000000        7.6180000000       38.0310000000     
    H   16.9690000000        5.7410000000       38.8300000000     
    H   17.2280000000       11.2670000000       37.5790000000     
    H   18.1810000000        9.7080000000       34.9720000000     
    H   20.4790000000       10.0430000000       40.1480000000     
    H   20.1340000000        9.1090000000       38.7120000000     
    H   19.0770000000        9.0020000000       40.0990000000     
    H   21.3060000000       11.8790000000       34.7890000000     
    H   20.7160000000       10.7210000000       33.6500000000     
    H   17.2710000000       11.9550000000       35.2850000000     
    H   18.4440000000       12.4320000000       36.3880000000     
    H   21.9070000000        4.2820000000       31.8580000000     
    H   19.3930000000        7.8620000000       33.9100000000     
    H   22.8510000000        6.8700000000       27.9900000000     
    H   22.6680000000        8.0050000000       25.7570000000     
    H   21.9140000000        9.5870000000       25.7010000000     
    H   25.6260000000        9.1210000000       27.4200000000     
    H   24.7150000000        7.7330000000       26.7620000000     
    H   21.5880000000        8.4260000000       30.2770000000     
    H   24.0880000000        9.2100000000       29.3010000000     
    H   24.7240000000        7.6070000000       29.1930000000     
    H   23.7480000000       10.4390000000       27.0050000000     
    H   24.5090000000        8.8840000000       24.5820000000     
    H   25.4020000000       10.2440000000       25.2180000000     
    H   23.8000000000       10.4810000000       24.5630000000     
    H   20.9250000000        8.1410000000       27.4350000000     
    H   21.6630000000        9.5870000000       28.1030000000     
    H   21.0400000000        1.5080000000       34.0070000000     
    H   22.1890000000        2.5100000000       33.1530000000     
    H   20.6060000000        2.2220000000       32.4720000000     
    H   20.5830000000        8.2560000000       31.8190000000     
    H   19.3750000000        4.5350000000       35.4410000000     
    H   18.7480000000       11.8640000000       33.4080000000     
    H   19.4720000000       13.1620000000       34.2720000000     
    H   20.5580000000       10.6730000000       36.6140000000     
    H   20.5750000000        9.3340000000       35.5600000000     
    H   18.4630000000       11.3370000000       39.8120000000     
    H   19.5350000000       11.3710000000       38.3660000000     
    H   15.5030000000        6.6560000000       39.5550000000     
    H   14.5210000000        8.1010000000       39.5240000000     
    H   15.7280000000        7.8910000000       40.7700000000     


