--Link1--
%chk=molecule
#HF/6-31G* SCF=tight Test Pop=MK iop(6/33=2) iop(6/42=6) opt

remark line goes here

0   1
    C    9.5210000000        4.7570000000       11.3000000000     
    C   10.9530000000        4.2050000000       11.4270000000     
    C   12.0080000000        5.0570000000       10.6930000000     
    O   11.7450000000        6.2510000000       10.5010000000     
    N   13.1670000000        4.4870000000       10.2460000000     
    C   13.9630000000        5.2090000000        9.2180000000     
    C   14.9180000000        6.2290000000        9.8700000000     
    C   14.7340000000        4.2700000000        8.2510000000     
    C   14.0760000000        2.8910000000        8.1180000000     
    N   14.7590000000        2.0840000000        7.1090000000     
    C   14.1740000000        0.9600000000        6.5060000000     
    C   14.9430000000        0.2310000000        5.5750000000     
    C   14.4140000000       -0.9120000000        4.9450000000     
    C   13.1050000000       -1.3390000000        5.2410000000     
    C   12.3290000000       -0.6180000000        6.1680000000     
    C   12.8580000000        0.5260000000        6.7970000000     
    C   14.0000000000        2.2980000000        9.5220000000     
    C   14.4020000000        0.9750000000        9.8160000000     
    C   14.3730000000        0.4710000000       11.1350000000     
    C   13.9580000000        1.3370000000       12.1700000000     
    C   13.5670000000        2.6600000000       11.8940000000     
    C   13.5550000000        3.1430000000       10.5650000000     
    C   14.7780000000       -0.9210000000       11.4200000000     
    C   15.5120000000       -1.2440000000       12.5820000000     
    C   15.9000000000       -2.5710000000       12.8550000000     
    C   15.5590000000       -3.6150000000       11.9620000000     
    O   15.8950000000       -4.9380000000       12.1480000000     
    C   16.6320000000       -5.2830000000       13.3140000000     
    C   14.8270000000       -3.2960000000       10.8020000000     
    C   14.4430000000       -1.9690000000       10.5340000000     
    H   13.2690000000        5.7610000000        8.5810000000     
    H   13.0530000000        3.0570000000        7.7760000000     
    H    8.8060000000        4.0920000000       11.7840000000     
    H    9.4280000000        5.7380000000       11.7690000000     
    H    9.2260000000        4.8550000000       10.2540000000     
    H   10.9590000000        3.1890000000       11.0330000000     
    H   11.2170000000        4.1460000000       12.4820000000     
    H   15.4830000000        6.7750000000        9.1140000000     
    H   14.3760000000        6.9650000000       10.4640000000     
    H   15.6340000000        5.7360000000       10.5290000000     
    H   14.8240000000        4.7510000000        7.2760000000     
    H   15.7540000000        4.1320000000        8.6150000000     
    H   15.7180000000        2.3290000000        6.8790000000     
    H   15.9510000000        0.5400000000        5.3350000000     
    H   15.0140000000       -1.4630000000        4.2340000000     
    H   12.6980000000       -2.2170000000        4.7580000000     
    H   11.3250000000       -0.9440000000        6.4000000000     
    H   12.2360000000        1.0470000000        7.5090000000     
    H   14.7580000000        0.3330000000        9.0250000000     
    H   13.9360000000        0.9890000000       13.1930000000     
    H   13.2850000000        3.2990000000       12.7180000000     
    H   15.7950000000       -0.4660000000       13.2770000000     
    H   16.4620000000       -2.7570000000       13.7580000000     
    H   17.6010000000       -4.7820000000       13.3380000000     
    H   16.0790000000       -5.0420000000       14.2230000000     
    H   16.8190000000       -6.3570000000       13.3200000000     
    H   14.5550000000       -4.0790000000       10.1070000000     
    H   13.8750000000       -1.7610000000        9.6380000000     


