--Link1--
%chk=molecule
#HF/6-31G* SCF=tight Test Pop=MK iop(6/33=2) iop(6/42=6) opt

remark line goes here

1   1
    C   16.5010000000        8.2150000000        9.5850000000     
    C   15.6240000000        7.1690000000        8.8860000000     
    C   14.9120000000        6.2400000000        9.8840000000     
    C   13.9660000000        5.2120000000        9.2150000000     
    C   14.7340000000        4.2650000000        8.2490000000     
    C   14.0750000000        2.8860000000        8.1170000000     
    N   14.7640000000        2.0790000000        7.1120000000     
    C   14.1620000000        0.9850000000        6.4710000000     
    C   12.8510000000        0.5430000000        6.7680000000     
    C   12.3020000000       -0.5650000000        6.0920000000     
    C   13.0550000000       -1.2410000000        5.1140000000     
    C   14.3600000000       -0.8080000000        4.8140000000     
    C   14.9090000000        0.2990000000        5.4900000000     
    C   13.9990000000        2.2950000000        9.5210000000     
    C   14.3950000000        0.9700000000        9.8150000000     
    C   14.3720000000        0.4700000000       11.1360000000     
    C   13.9620000000        1.3400000000       12.1700000000     
    C   13.5710000000        2.6630000000       11.8930000000     
    C   13.5580000000        3.1420000000       10.5620000000     
    N   13.1700000000        4.4870000000       10.2420000000     
    C   12.0080000000        5.0500000000       10.6860000000     
    C   10.9740000000        4.2100000000       11.4410000000     
    O   11.7150000000        6.2320000000       10.4730000000     
    C   14.7800000000       -0.9190000000       11.4290000000     
    C   14.0990000000       -1.6860000000       12.4020000000     
    C   14.4830000000       -3.0120000000       12.6820000000     
    C   15.5570000000       -3.6040000000       11.9860000000     
    C   15.9790000000       -5.0400000000       12.2900000000     
    C   13.8320000000       -6.1640000000       11.7000000000     
    C   13.2270000000       -7.3790000000       10.9710000000     
    C   13.5420000000       -7.3370000000        9.4680000000     
    C   15.0560000000       -7.2030000000        9.2480000000     
    C   15.6240000000       -5.9920000000       10.0120000000     
    C   16.2520000000       -2.8440000000       11.0220000000     
    C   15.8620000000       -1.5190000000       10.7470000000     
    H   13.2670000000        5.7590000000        8.5790000000     
    H   13.0520000000        3.0530000000        7.7730000000     
    H   16.9940000000        8.8590000000        8.8560000000     
    H   15.9100000000        8.8530000000       10.2430000000     
    H   17.2780000000        7.7420000000       10.1860000000     
    H   16.2450000000        6.5860000000        8.2050000000     
    H   14.8840000000        7.6780000000        8.2670000000     
    H   14.3440000000        6.8570000000       10.5810000000     
    H   15.6520000000        5.7130000000       10.4890000000     
    H   14.8230000000        4.7420000000        7.2720000000     
    H   15.7530000000        4.1260000000        8.6130000000     
    H   15.7080000000        2.3490000000        6.8550000000     
    H   12.2460000000        1.0300000000        7.5190000000     
    H   11.3000000000       -0.8970000000        6.3280000000     
    H   12.6330000000       -2.0920000000        4.5960000000     
    H   14.9420000000       -1.3240000000        4.0640000000     
    H   15.9130000000        0.6160000000        5.2450000000     
    H   14.7260000000        0.3200000000        9.0190000000     
    H   13.9600000000        0.9990000000       13.1960000000     
    H   13.2940000000        3.3050000000       12.7160000000     
    H   11.2090000000        4.1690000000       12.5040000000     
    H   10.9120000000        3.1950000000       11.0480000000     
    H    9.9840000000        4.6540000000       11.3410000000     
    H   13.2640000000       -1.2590000000       12.9390000000     
    H   13.9430000000       -3.5710000000       13.4340000000     
    H   17.0580000000       -5.1310000000       12.1590000000     
    H   15.7970000000       -5.2510000000       13.3450000000     
    H   13.6360000000       -6.2470000000       12.7700000000     
    H   13.3380000000       -5.2530000000       11.3600000000     
    H   12.1470000000       -7.4010000000       11.1240000000     
    H   13.6140000000       -8.3020000000       11.4050000000     
    H   13.1660000000       -8.2360000000        8.9770000000     
    H   13.0260000000       -6.4940000000        9.0060000000     
    H   15.5600000000       -8.1150000000        9.5720000000     
    H   15.2700000000       -7.1010000000        8.1830000000     
    H   16.7060000000       -5.9520000000        9.8780000000     
    H   15.2210000000       -5.0720000000        9.5860000000     
    H   17.0880000000       -3.2710000000       10.4870000000     
    H   16.4130000000       -0.9560000000       10.0060000000     
    N   15.2960000000       -6.0660000000       11.4600000000     
    H   15.6840000000       -6.9400000000       11.7830000000     


