--Link1--
%chk=molecule
#HF/6-31G* SCF=tight Test Pop=MK iop(6/33=2) iop(6/42=6) opt

remark line goes here

0   1
    C   17.0330000000       -5.4900000000       11.6780000000     
    O   15.9430000000       -4.8750000000       12.3550000000     
    C   15.6180000000       -3.5800000000       12.0170000000     
    C   14.5350000000       -2.9920000000       12.6970000000     
    C   14.1360000000       -1.6720000000       12.4130000000     
    C   14.8080000000       -0.9010000000       11.4380000000     
    C   15.8940000000       -1.4950000000       10.7580000000     
    C   16.2990000000       -2.8150000000       11.0390000000     
    C   14.3860000000        0.4820000000       11.1400000000     
    C   13.9680000000        1.3520000000       12.1710000000     
    C   13.5650000000        2.6700000000       11.8890000000     
    C   13.5450000000        3.1430000000       10.5560000000     
    N   13.1520000000        4.4830000000       10.2340000000     
    C   13.9670000000        5.2080000000        9.2230000000     
    C   14.9330000000        6.2000000000        9.8990000000     
    C   14.7270000000        4.2690000000        8.2460000000     
    C   14.0700000000        2.8890000000        8.1130000000     
    N   14.7560000000        2.0830000000        7.1070000000     
    C   14.1590000000        0.9790000000        6.4790000000     
    C   14.9110000000        0.2800000000        5.5100000000     
    C   14.3670000000       -0.8380000000        4.8490000000     
    C   13.0620000000       -1.2700000000        5.1510000000     
    C   12.3040000000       -0.5810000000        6.1160000000     
    C   12.8480000000        0.5380000000        6.7770000000     
    C   13.9960000000        2.2970000000        9.5180000000     
    C   14.4050000000        0.9770000000        9.8160000000     
    C   11.9870000000        5.0560000000       10.6620000000     
    O   11.7600000000        6.2630000000       10.5130000000     
    C   10.8600000000        4.2130000000       11.3090000000     
    C   10.6010000000        4.6620000000       12.7590000000     
    C    9.5690000000        4.3190000000       10.4760000000     
    H   13.2870000000        5.7830000000        8.5900000000     
    H   13.0470000000        3.0550000000        7.7710000000     
    H   17.1640000000       -6.5050000000       12.0520000000     
    H   16.8510000000       -5.5570000000       10.6050000000     
    H   17.9660000000       -4.9530000000       11.8520000000     
    H   14.0010000000       -3.5590000000       13.4460000000     
    H   13.2940000000       -1.2540000000       12.9480000000     
    H   16.4380000000       -0.9330000000       10.0120000000     
    H   17.1370000000       -3.2150000000       10.4870000000     
    H   13.9690000000        1.0140000000       13.1970000000     
    H   13.2750000000        3.3130000000       12.7070000000     
    H   15.6380000000        5.6840000000       10.5530000000     
    H   14.4000000000        6.9340000000       10.5040000000     
    H   15.5110000000        6.7510000000        9.1570000000     
    H   14.8100000000        4.7530000000        7.2710000000     
    H   15.7500000000        4.1300000000        8.6010000000     
    H   15.7030000000        2.3470000000        6.8540000000     
    H   15.9160000000        0.5950000000        5.2640000000     
    H   14.9530000000       -1.3650000000        4.1090000000     
    H   12.6440000000       -2.1300000000        4.6440000000     
    H   11.3020000000       -0.9120000000        6.3530000000     
    H   12.2390000000        1.0350000000        7.5180000000     
    H   14.7430000000        0.3280000000        9.0230000000     
    H   11.1150000000        3.1560000000       11.3180000000     
    H    9.8600000000        4.0230000000       13.2400000000     
    H   11.5080000000        4.6210000000       13.3630000000     
    H   10.2280000000        5.6870000000       12.8000000000     
    H    8.7870000000        3.6780000000       10.8830000000     
    H    9.7390000000        4.0100000000        9.4440000000     
    H    9.1830000000        5.3390000000       10.4570000000     


