--Link1--
%chk=molecule
#HF/6-31G* SCF=tight Test Pop=MK iop(6/33=2) iop(6/42=6) opt

remark line goes here

-1   1
    C   15.0320000000        6.0240000000       10.0040000000     
    C   14.0090000000        5.1520000000        9.2570000000     
    C   14.6530000000        4.2700000000        8.1860000000     
    C   14.0000000000        2.9070000000        8.1410000000     
    N   14.5630000000        2.0190000000        7.1420000000     
    C   13.8410000000        1.0320000000        6.4880000000     
    C   14.2550000000        0.5760000000        5.2570000000     
    C   13.5710000000       -0.4260000000        4.6150000000     
    C   12.5050000000       -0.9940000000        5.2300000000     
   Cl   11.6630000000       -2.3020000000        4.4280000000     
    C   12.0910000000       -0.5760000000        6.4440000000     
    C   12.7700000000        0.4320000000        7.0840000000     
    C   13.9780000000        2.3010000000        9.5210000000     
    C   14.5050000000        1.0590000000        9.8420000000     
    C   14.4410000000        0.5820000000       11.1440000000     
    C   13.9660000000        1.4250000000       12.1300000000     
    C   13.5050000000        2.6820000000       11.8430000000     
    C   13.5190000000        3.1270000000       10.5440000000     
    N   13.1060000000        4.4410000000       10.1930000000     
    C   11.9960000000        5.0490000000       10.6430000000     
    C   11.1180000000        4.2820000000       11.5830000000     
    O   11.7470000000        6.1620000000       10.3290000000     
    C   14.9370000000       -0.7580000000       11.5120000000     
    C   14.4280000000       -1.4020000000       12.6130000000     
    C   14.8880000000       -2.6390000000       13.0010000000     
    C   15.8780000000       -3.2790000000       12.2890000000     
    C   16.4070000000       -2.6360000000       11.1850000000     
    C   15.9430000000       -1.3870000000       10.8080000000     
    C   16.3820000000       -4.6180000000       12.7120000000     
    O   17.3860000000       -5.0350000000       12.2300000000     
    O   15.7230000000       -5.2520000000       13.6010000000     
    H   14.5180000000        6.6280000000       10.7520000000     
    H   15.7650000000        5.3850000000       10.4960000000     
    H   15.5390000000        6.6780000000        9.2950000000     
    H   13.3730000000        5.8510000000        8.7140000000     
    H   15.7160000000        4.1560000000        8.4000000000     
    H   14.5560000000        4.7510000000        7.2130000000     
    H   12.9600000000        3.0710000000        7.8580000000     
    H   15.5420000000        2.1520000000        6.9320000000     
    H   15.1260000000        1.0070000000        4.7870000000     
    H   13.8840000000       -0.7510000000        3.6340000000     
    H   11.2300000000       -1.0340000000        6.9080000000     
    H   12.4510000000        0.7490000000        8.0660000000     
    H   14.9700000000        0.4550000000        9.0760000000     
    H   13.9520000000        1.0980000000       13.1590000000     
    H   13.1340000000        3.3150000000       12.6350000000     
    H   10.2610000000        4.8950000000       11.8630000000     
    H   10.7690000000        3.3720000000       11.0940000000     
    H   11.6840000000        4.0190000000       12.4770000000     
    H   13.6480000000       -0.9380000000       13.1970000000     
    H   14.4720000000       -3.1200000000       13.8740000000     
    H   17.1890000000       -3.1080000000       10.6080000000     
    H   16.3820000000       -0.9050000000        9.9470000000     


