--Link1--
%chk=molecule
#HF/6-31G* SCF=tight Test Pop=MK iop(6/33=2) iop(6/42=6) opt

remark line goes here

0   1
    O   -2.9650000000        7.6150000000       -8.5740000000     
    C   -1.8460000000        8.2000000000       -8.6350000000     
    N   -1.6580000000        9.3700000000       -9.4440000000     
    C   -0.3680000000        9.8080000000       -9.8150000000     
    C   -0.1750000000       10.6160000000      -10.9550000000     
    C    1.0790000000       11.0210000000      -11.3300000000     
    C    2.1830000000       10.6510000000      -10.5850000000     
   Br    3.9400000000       11.2980000000      -11.0770000000     
    C    2.0020000000        9.9020000000       -9.4190000000     
    C    0.7330000000        9.4330000000       -9.0450000000     
    C    0.4920000000        8.6660000000       -7.8590000000     
    N   -0.7610000000        7.7920000000       -7.9310000000     
    C   -0.8440000000        6.6860000000       -6.9670000000     
    H    0.0070000000        6.0050000000       -7.1160000000     
    H   -0.8160000000        7.0890000000       -5.9430000000     
    H   -1.7840000000        6.1370000000       -7.1190000000     
    H    0.3810000000        9.3620000000       -7.0130000000     
    H    1.3600000000        8.0140000000       -7.6850000000     
    H    2.8570000000        9.6800000000       -8.7910000000     
    H    1.2060000000       11.6340000000      -12.2160000000     
    H   -1.0330000000       10.9210000000      -11.5430000000     
    H   -2.4580000000        9.8850000000       -9.7520000000     


